nN = 10;
nR = 40;
nH = 1;

a = [[24, 18, 17, 19, 19, 24, 20, 23, 15, 25, 21, 18, 18, 18, 19, 20, 25, 15, 23, 21, 25, 21, 17, 21, 22, 19, 20, 17, 18, 19, 16, 22, 20, 21, 21, 16, 24, 16, 20, 24], [16, 16, 23, 21, 25, 20, 16, 25, 20, 19, 24, 17, 25, 24, 15, 18, 25, 20, 23, 15, 16, 19, 17, 16, 15, 16, 18, 19, 20, 18, 21, 21, 17, 22, 23, 25, 22, 17, 16, 19], [25, 19, 20, 25, 20, 20, 24, 20, 24, 20, 23, 21, 18, 20, 18, 20, 22, 22, 20, 15, 21, 17, 22, 20, 24, 24, 15, 21, 15, 25, 18, 21, 24, 17, 20, 19, 20, 18, 22, 20], [21, 24, 18, 18, 17, 17, 20, 17, 21, 20, 18, 18, 22, 23, 19, 25, 19, 21, 23, 20, 17, 21, 22, 22, 18, 22, 16, 16, 19, 23, 15, 21, 17, 18, 22, 17, 16, 21, 18, 19], [24, 16, 19, 15, 23, 22, 17, 23, 25, 16, 22, 17, 21, 22, 22, 16, 20, 23, 21, 25, 18, 16, 25, 22, 18, 21, 22, 24, 19, 19, 21, 20, 22, 25, 25, 20, 25, 22, 15, 22], [19, 25, 18, 18, 24, 22, 16, 22, 21, 19, 15, 18, 16, 22, 25, 25, 23, 16, 20, 18, 15, 23, 19, 16, 19, 20, 21, 17, 23, 21, 18, 16, 21, 18, 20, 16, 16, 21, 16, 16], [18, 16, 24, 18, 17, 20, 19, 24, 17, 18, 24, 18, 24, 22, 16, 19, 23, 22, 18, 21, 15, 15, 17, 24, 18, 20, 23, 21, 23, 16, 19, 24, 19, 15, 22, 20, 25, 20, 22, 17], [25, 24, 21, 15, 20, 22, 17, 17, 16, 20, 24, 15, 15, 16, 22, 17, 22, 22, 17, 20, 22, 20, 16, 24, 17, 15, 18, 23, 24, 22, 21, 21, 18, 21, 15, 20, 18, 18, 16, 20], [15, 18, 18, 17, 21, 23, 24, 24, 18, 24, 18, 19, 16, 25, 19, 17, 19, 24, 15, 19, 19, 19, 22, 24, 15, 21, 18, 19, 21, 16, 20, 25, 24, 24, 21, 16, 23, 25, 24, 22], [20, 24, 18, 21, 20, 23, 25, 17, 20, 15, 21, 25, 23, 16, 24, 17, 17, 23, 25, 20, 21, 23, 22, 21, 17, 19, 18, 23, 20, 17, 17, 20, 23, 23, 16, 25, 21, 19, 22, 18]];
c = [[[0, 0, 0, 0, 0, 0, 0, 0, 0, 0, 0, 0, 0, 0, 0, 0, 0, 0, 0, 0, 0, 0, 0, 0, 0, 0, 0, 0, 0, 0, 0, 0, 0, 0, 0, 0, 0, 0, 0, 0], [30, 33, 36, 42, 44, 47, 50, 50, 39, 35, 43, 39, 38, 36, 35, 31, 39, 30, 41, 41, 32, 31, 32, 47, 49, 31, 32, 45, 37, 50, 37, 48, 41, 41, 30, 49, 34, 40, 37, 43], [50, 47, 48, 30, 48, 35, 50, 47, 39, 36, 46, 32, 47, 41, 50, 44, 42, 50, 42, 31, 38, 41, 44, 49, 38, 44, 35, 37, 33, 42, 33, 47, 39, 36, 48, 31, 33, 34, 38, 47], [49, 32, 34, 43, 37, 32, 34, 36, 43, 48, 46, 47, 40, 31, 43, 39, 33, 44, 33, 36, 38, 34, 39, 34, 43, 43, 33, 48, 37, 42, 50, 38, 38, 33, 35, 39, 47, 48, 34, 41], [32, 42, 45, 50, 36, 49, 42, 46, 48, 31, 49, 38, 42, 45, 49, 37, 36, 33, 41, 47, 42, 49, 35, 48, 30, 40, 33, 43, 33, 42, 31, 50, 48, 42, 48, 40, 46, 36, 45, 49], [45, 36, 42, 41, 31, 31, 41, 36, 42, 44, 46, 32, 35, 43, 47, 33, 36, 44, 46, 47, 34, 43, 35, 34, 30, 44, 41, 30, 30, 45, 38, 37, 34, 44, 31, 49, 38, 30, 45, 34], [32, 48, 49, 42, 48, 48, 34, 37, 40, 50, 32, 47, 47, 41, 36, 33, 49, 40, 50, 40, 46, 39, 33, 48, 45, 30, 33, 43, 47, 39, 30, 35, 37, 37, 46, 37, 33, 32, 34, 37], [47, 42, 30, 38, 34, 40, 32, 45, 41, 35, 37, 45, 41, 32, 33, 30, 45, 41, 43, 35, 41, 42, 35, 38, 37, 45, 46, 30, 50, 50, 37, 41, 39, 50, 30, 44, 32, 37, 43, 33], [47, 38, 30, 35, 38, 42, 39, 46, 38, 37, 38, 41, 50, 48, 41, 30, 30, 47, 32, 48, 43, 37, 42, 32, 41, 48, 45, 46, 31, 36, 32, 49, 30, 49, 45, 49, 46, 31, 45, 47], [42, 48, 45, 41, 46, 42, 46, 38, 36, 33, 44, 33, 42, 40, 48, 32, 42, 48, 38, 50, 42, 50, 30, 38, 43, 49, 33, 48, 39, 39, 41, 33, 32, 33, 50, 47, 49, 38, 32, 31]], [[0, 0, 0, 0, 0, 0, 0, 0, 0, 0, 0, 0, 0, 0, 0, 0, 0, 0, 0, 0, 0, 0, 0, 0, 0, 0, 0, 0, 0, 0, 0, 0, 0, 0, 0, 0, 0, 0, 0, 0], [0, 0, 0, 0, 0, 0, 0, 0, 0, 0, 0, 0, 0, 0, 0, 0, 0, 0, 0, 0, 0, 0, 0, 0, 0, 0, 0, 0, 0, 0, 0, 0, 0, 0, 0, 0, 0, 0, 0, 0], [43, 34, 46, 40, 41, 30, 37, 46, 40, 37, 37, 32, 47, 46, 38, 46, 38, 39, 41, 36, 41, 49, 36, 41, 47, 33, 34, 32, 50, 46, 32, 40, 44, 37, 30, 41, 31, 37, 47, 47], [31, 45, 40, 46, 44, 30, 41, 49, 37, 41, 34, 45, 34, 30, 39, 35, 50, 33, 31, 30, 34, 40, 31, 46, 41, 48, 48, 50, 31, 45, 35, 50, 47, 48, 42, 37, 32, 33, 32, 34], [46, 38, 30, 38, 47, 39, 36, 33, 46, 39, 39, 47, 33, 36, 43, 37, 37, 30, 50, 44, 45, 42, 31, 42, 35, 31, 46, 44, 30, 39, 46, 34, 33, 36, 41, 44, 47, 37, 42, 33], [40, 39, 49, 45, 45, 48, 36, 37, 34, 50, 33, 46, 43, 42, 38, 47, 50, 45, 31, 47, 47, 49, 48, 37, 48, 30, 31, 36, 43, 45, 50, 50, 33, 42, 41, 43, 38, 42, 37, 42], [36, 50, 50, 44, 31, 40, 46, 35, 46, 31, 40, 34, 32, 49, 39, 42, 40, 41, 46, 42, 46, 47, 41, 34, 33, 34, 43, 33, 46, 35, 39, 49, 34, 32, 37, 41, 50, 47, 34, 41], [42, 32, 32, 37, 50, 47, 36, 43, 40, 46, 38, 50, 49, 49, 37, 40, 41, 41, 44, 41, 32, 44, 35, 34, 32, 45, 31, 35, 31, 42, 41, 48, 33, 48, 44, 50, 32, 31, 49, 47], [41, 43, 48, 47, 34, 44, 33, 34, 49, 42, 37, 43, 32, 34, 40, 46, 49, 40, 41, 43, 31, 45, 46, 50, 34, 34, 31, 35, 33, 34, 40, 49, 44, 35, 50, 41, 32, 47, 31, 44], [49, 44, 41, 34, 50, 38, 48, 31, 50, 48, 44, 49, 48, 31, 30, 30, 40, 42, 42, 32, 40, 32, 43, 47, 48, 43, 50, 34, 30, 47, 32, 46, 46, 49, 39, 33, 32, 38, 34, 30]], [[0, 0, 0, 0, 0, 0, 0, 0, 0, 0, 0, 0, 0, 0, 0, 0, 0, 0, 0, 0, 0, 0, 0, 0, 0, 0, 0, 0, 0, 0, 0, 0, 0, 0, 0, 0, 0, 0, 0, 0], [0, 0, 0, 0, 0, 0, 0, 0, 0, 0, 0, 0, 0, 0, 0, 0, 0, 0, 0, 0, 0, 0, 0, 0, 0, 0, 0, 0, 0, 0, 0, 0, 0, 0, 0, 0, 0, 0, 0, 0], [0, 0, 0, 0, 0, 0, 0, 0, 0, 0, 0, 0, 0, 0, 0, 0, 0, 0, 0, 0, 0, 0, 0, 0, 0, 0, 0, 0, 0, 0, 0, 0, 0, 0, 0, 0, 0, 0, 0, 0], [34, 44, 42, 50, 30, 31, 47, 47, 48, 47, 30, 41, 42, 36, 38, 42, 30, 47, 39, 44, 45, 49, 35, 34, 38, 48, 44, 46, 46, 44, 33, 36, 45, 50, 40, 48, 32, 48, 43, 33], [31, 32, 43, 48, 47, 48, 47, 45, 39, 36, 48, 38, 33, 31, 33, 32, 46, 45, 32, 30, 37, 44, 36, 41, 47, 44, 49, 41, 50, 39, 40, 46, 41, 47, 44, 48, 40, 30, 47, 43], [45, 31, 36, 33, 30, 47, 42, 47, 39, 43, 32, 37, 33, 50, 39, 42, 43, 42, 33, 47, 50, 45, 35, 31, 37, 48, 36, 34, 39, 43, 40, 50, 42, 49, 46, 46, 30, 38, 30, 33], [40, 39, 33, 30, 41, 31, 33, 30, 44, 33, 31, 40, 30, 37, 44, 45, 37, 47, 36, 39, 48, 32, 35, 35, 40, 40, 39, 45, 32, 30, 46, 40, 42, 49, 40, 50, 30, 38, 39, 30], [30, 37, 43, 37, 38, 47, 31, 32, 50, 32, 36, 49, 33, 36, 34, 46, 30, 38, 43, 39, 33, 39, 43, 34, 41, 44, 33, 37, 36, 33, 33, 49, 36, 41, 49, 38, 39, 32, 32, 48], [38, 30, 36, 47, 30, 38, 33, 31, 30, 40, 38, 36, 44, 38, 48, 46, 43, 35, 47, 46, 37, 40, 50, 50, 35, 44, 37, 34, 42, 35, 49, 35, 48, 31, 31, 31, 47, 49, 33, 47], [40, 38, 40, 49, 39, 33, 35, 43, 35, 42, 44, 41, 39, 37, 49, 47, 46, 42, 50, 32, 47, 37, 30, 48, 37, 35, 48, 36, 37, 47, 43, 42, 42, 43, 47, 47, 38, 36, 39, 41]], [[0, 0, 0, 0, 0, 0, 0, 0, 0, 0, 0, 0, 0, 0, 0, 0, 0, 0, 0, 0, 0, 0, 0, 0, 0, 0, 0, 0, 0, 0, 0, 0, 0, 0, 0, 0, 0, 0, 0, 0], [0, 0, 0, 0, 0, 0, 0, 0, 0, 0, 0, 0, 0, 0, 0, 0, 0, 0, 0, 0, 0, 0, 0, 0, 0, 0, 0, 0, 0, 0, 0, 0, 0, 0, 0, 0, 0, 0, 0, 0], [0, 0, 0, 0, 0, 0, 0, 0, 0, 0, 0, 0, 0, 0, 0, 0, 0, 0, 0, 0, 0, 0, 0, 0, 0, 0, 0, 0, 0, 0, 0, 0, 0, 0, 0, 0, 0, 0, 0, 0], [0, 0, 0, 0, 0, 0, 0, 0, 0, 0, 0, 0, 0, 0, 0, 0, 0, 0, 0, 0, 0, 0, 0, 0, 0, 0, 0, 0, 0, 0, 0, 0, 0, 0, 0, 0, 0, 0, 0, 0], [30, 40, 30, 35, 37, 34, 45, 36, 50, 41, 35, 31, 43, 42, 34, 45, 35, 45, 42, 49, 41, 34, 44, 46, 50, 44, 35, 44, 39, 46, 30, 38, 50, 38, 49, 38, 30, 48, 48, 49], [42, 49, 34, 32, 38, 42, 41, 30, 45, 37, 48, 30, 43, 30, 31, 46, 34, 34, 43, 37, 50, 30, 39, 30, 42, 40, 34, 44, 43, 49, 44, 37, 37, 43, 50, 46, 44, 30, 39, 45], [37, 30, 40, 50, 38, 37, 35, 47, 44, 46, 38, 49, 37, 35, 34, 32, 30, 41, 31, 42, 47, 49, 49, 31, 48, 43, 39, 46, 46, 49, 45, 35, 33, 30, 39, 46, 49, 44, 49, 46], [37, 37, 32, 47, 43, 45, 41, 45, 47, 36, 47, 32, 32, 37, 41, 44, 35, 38, 30, 31, 45, 30, 31, 46, 35, 48, 44, 33, 30, 45, 50, 32, 48, 37, 47, 35, 36, 31, 41, 41], [41, 34, 46, 32, 38, 36, 44, 50, 37, 47, 37, 42, 41, 31, 34, 44, 37, 47, 39, 32, 49, 38, 32, 32, 32, 31, 34, 46, 37, 47, 40, 39, 33, 50, 45, 38, 40, 44, 46, 31], [32, 39, 34, 50, 31, 33, 43, 34, 40, 32, 30, 36, 34, 46, 39, 31, 50, 36, 47, 45, 46, 46, 34, 46, 30, 46, 50, 41, 30, 40, 30, 36, 40, 34, 38, 33, 43, 43, 45, 48]], [[0, 0, 0, 0, 0, 0, 0, 0, 0, 0, 0, 0, 0, 0, 0, 0, 0, 0, 0, 0, 0, 0, 0, 0, 0, 0, 0, 0, 0, 0, 0, 0, 0, 0, 0, 0, 0, 0, 0, 0], [0, 0, 0, 0, 0, 0, 0, 0, 0, 0, 0, 0, 0, 0, 0, 0, 0, 0, 0, 0, 0, 0, 0, 0, 0, 0, 0, 0, 0, 0, 0, 0, 0, 0, 0, 0, 0, 0, 0, 0], [0, 0, 0, 0, 0, 0, 0, 0, 0, 0, 0, 0, 0, 0, 0, 0, 0, 0, 0, 0, 0, 0, 0, 0, 0, 0, 0, 0, 0, 0, 0, 0, 0, 0, 0, 0, 0, 0, 0, 0], [0, 0, 0, 0, 0, 0, 0, 0, 0, 0, 0, 0, 0, 0, 0, 0, 0, 0, 0, 0, 0, 0, 0, 0, 0, 0, 0, 0, 0, 0, 0, 0, 0, 0, 0, 0, 0, 0, 0, 0], [0, 0, 0, 0, 0, 0, 0, 0, 0, 0, 0, 0, 0, 0, 0, 0, 0, 0, 0, 0, 0, 0, 0, 0, 0, 0, 0, 0, 0, 0, 0, 0, 0, 0, 0, 0, 0, 0, 0, 0], [39, 32, 36, 41, 33, 43, 43, 30, 34, 48, 50, 46, 43, 36, 39, 34, 50, 38, 38, 30, 48, 39, 40, 47, 40, 47, 39, 50, 42, 50, 46, 31, 30, 30, 33, 32, 42, 49, 50, 31], [42, 41, 45, 47, 35, 49, 50, 44, 47, 41, 50, 34, 39, 50, 31, 48, 39, 46, 37, 40, 50, 40, 48, 39, 45, 31, 40, 36, 35, 46, 48, 36, 42, 37, 32, 47, 41, 45, 38, 47], [48, 38, 38, 46, 45, 39, 34, 42, 33, 45, 50, 50, 37, 34, 38, 32, 44, 50, 38, 44, 42, 45, 42, 37, 40, 48, 38, 31, 39, 38, 37, 42, 41, 39, 39, 35, 47, 43, 48, 46], [37, 40, 32, 36, 46, 33, 41, 31, 46, 50, 49, 33, 36, 44, 35, 44, 31, 49, 39, 48, 35, 42, 39, 30, 48, 37, 39, 35, 41, 32, 50, 45, 43, 50, 34, 33, 38, 39, 35, 40], [34, 40, 37, 47, 32, 41, 38, 45, 32, 30, 34, 45, 30, 45, 42, 47, 43, 37, 50, 50, 36, 49, 41, 35, 30, 43, 48, 35, 44, 31, 30, 40, 39, 43, 46, 34, 46, 33, 49, 47]], [[0, 0, 0, 0, 0, 0, 0, 0, 0, 0, 0, 0, 0, 0, 0, 0, 0, 0, 0, 0, 0, 0, 0, 0, 0, 0, 0, 0, 0, 0, 0, 0, 0, 0, 0, 0, 0, 0, 0, 0], [0, 0, 0, 0, 0, 0, 0, 0, 0, 0, 0, 0, 0, 0, 0, 0, 0, 0, 0, 0, 0, 0, 0, 0, 0, 0, 0, 0, 0, 0, 0, 0, 0, 0, 0, 0, 0, 0, 0, 0], [0, 0, 0, 0, 0, 0, 0, 0, 0, 0, 0, 0, 0, 0, 0, 0, 0, 0, 0, 0, 0, 0, 0, 0, 0, 0, 0, 0, 0, 0, 0, 0, 0, 0, 0, 0, 0, 0, 0, 0], [0, 0, 0, 0, 0, 0, 0, 0, 0, 0, 0, 0, 0, 0, 0, 0, 0, 0, 0, 0, 0, 0, 0, 0, 0, 0, 0, 0, 0, 0, 0, 0, 0, 0, 0, 0, 0, 0, 0, 0], [0, 0, 0, 0, 0, 0, 0, 0, 0, 0, 0, 0, 0, 0, 0, 0, 0, 0, 0, 0, 0, 0, 0, 0, 0, 0, 0, 0, 0, 0, 0, 0, 0, 0, 0, 0, 0, 0, 0, 0], [0, 0, 0, 0, 0, 0, 0, 0, 0, 0, 0, 0, 0, 0, 0, 0, 0, 0, 0, 0, 0, 0, 0, 0, 0, 0, 0, 0, 0, 0, 0, 0, 0, 0, 0, 0, 0, 0, 0, 0], [36, 30, 44, 47, 36, 46, 43, 31, 35, 42, 40, 31, 45, 32, 44, 46, 43, 36, 48, 50, 43, 35, 34, 38, 37, 49, 37, 50, 33, 33, 42, 45, 46, 43, 46, 41, 42, 50, 41, 37], [43, 41, 31, 41, 48, 49, 32, 47, 46, 36, 39, 49, 39, 33, 45, 34, 45, 31, 39, 31, 49, 46, 39, 30, 35, 31, 33, 33, 37, 34, 41, 36, 40, 45, 50, 31, 45, 32, 45, 35], [33, 33, 33, 31, 50, 45, 41, 44, 34, 39, 38, 30, 34, 43, 44, 47, 35, 43, 31, 48, 45, 49, 48, 39, 49, 41, 40, 40, 32, 46, 49, 30, 41, 37, 48, 36, 43, 32, 38, 34], [32, 36, 41, 42, 42, 43, 47, 39, 41, 40, 45, 46, 43, 35, 35, 45, 35, 40, 32, 44, 40, 38, 33, 47, 48, 38, 42, 37, 48, 42, 47, 30, 45, 34, 49, 30, 47, 39, 36, 38]], [[0, 0, 0, 0, 0, 0, 0, 0, 0, 0, 0, 0, 0, 0, 0, 0, 0, 0, 0, 0, 0, 0, 0, 0, 0, 0, 0, 0, 0, 0, 0, 0, 0, 0, 0, 0, 0, 0, 0, 0], [0, 0, 0, 0, 0, 0, 0, 0, 0, 0, 0, 0, 0, 0, 0, 0, 0, 0, 0, 0, 0, 0, 0, 0, 0, 0, 0, 0, 0, 0, 0, 0, 0, 0, 0, 0, 0, 0, 0, 0], [0, 0, 0, 0, 0, 0, 0, 0, 0, 0, 0, 0, 0, 0, 0, 0, 0, 0, 0, 0, 0, 0, 0, 0, 0, 0, 0, 0, 0, 0, 0, 0, 0, 0, 0, 0, 0, 0, 0, 0], [0, 0, 0, 0, 0, 0, 0, 0, 0, 0, 0, 0, 0, 0, 0, 0, 0, 0, 0, 0, 0, 0, 0, 0, 0, 0, 0, 0, 0, 0, 0, 0, 0, 0, 0, 0, 0, 0, 0, 0], [0, 0, 0, 0, 0, 0, 0, 0, 0, 0, 0, 0, 0, 0, 0, 0, 0, 0, 0, 0, 0, 0, 0, 0, 0, 0, 0, 0, 0, 0, 0, 0, 0, 0, 0, 0, 0, 0, 0, 0], [0, 0, 0, 0, 0, 0, 0, 0, 0, 0, 0, 0, 0, 0, 0, 0, 0, 0, 0, 0, 0, 0, 0, 0, 0, 0, 0, 0, 0, 0, 0, 0, 0, 0, 0, 0, 0, 0, 0, 0], [0, 0, 0, 0, 0, 0, 0, 0, 0, 0, 0, 0, 0, 0, 0, 0, 0, 0, 0, 0, 0, 0, 0, 0, 0, 0, 0, 0, 0, 0, 0, 0, 0, 0, 0, 0, 0, 0, 0, 0], [43, 46, 40, 42, 35, 34, 43, 44, 41, 46, 40, 46, 31, 31, 33, 30, 43, 31, 41, 44, 40, 38, 32, 45, 34, 39, 45, 45, 41, 45, 48, 48, 35, 45, 31, 45, 46, 32, 50, 38], [43, 46, 50, 42, 50, 39, 43, 32, 34, 46, 40, 45, 32, 38, 37, 37, 42, 39, 42, 42, 30, 35, 37, 42, 37, 30, 32, 31, 30, 49, 31, 30, 45, 42, 40, 33, 42, 45, 36, 47], [34, 49, 41, 43, 30, 47, 42, 40, 31, 39, 47, 45, 49, 35, 49, 49, 46, 45, 50, 50, 37, 36, 35, 38, 34, 37, 40, 33, 36, 46, 48, 34, 43, 38, 49, 36, 32, 33, 40, 37]], [[0, 0, 0, 0, 0, 0, 0, 0, 0, 0, 0, 0, 0, 0, 0, 0, 0, 0, 0, 0, 0, 0, 0, 0, 0, 0, 0, 0, 0, 0, 0, 0, 0, 0, 0, 0, 0, 0, 0, 0], [0, 0, 0, 0, 0, 0, 0, 0, 0, 0, 0, 0, 0, 0, 0, 0, 0, 0, 0, 0, 0, 0, 0, 0, 0, 0, 0, 0, 0, 0, 0, 0, 0, 0, 0, 0, 0, 0, 0, 0], [0, 0, 0, 0, 0, 0, 0, 0, 0, 0, 0, 0, 0, 0, 0, 0, 0, 0, 0, 0, 0, 0, 0, 0, 0, 0, 0, 0, 0, 0, 0, 0, 0, 0, 0, 0, 0, 0, 0, 0], [0, 0, 0, 0, 0, 0, 0, 0, 0, 0, 0, 0, 0, 0, 0, 0, 0, 0, 0, 0, 0, 0, 0, 0, 0, 0, 0, 0, 0, 0, 0, 0, 0, 0, 0, 0, 0, 0, 0, 0], [0, 0, 0, 0, 0, 0, 0, 0, 0, 0, 0, 0, 0, 0, 0, 0, 0, 0, 0, 0, 0, 0, 0, 0, 0, 0, 0, 0, 0, 0, 0, 0, 0, 0, 0, 0, 0, 0, 0, 0], [0, 0, 0, 0, 0, 0, 0, 0, 0, 0, 0, 0, 0, 0, 0, 0, 0, 0, 0, 0, 0, 0, 0, 0, 0, 0, 0, 0, 0, 0, 0, 0, 0, 0, 0, 0, 0, 0, 0, 0], [0, 0, 0, 0, 0, 0, 0, 0, 0, 0, 0, 0, 0, 0, 0, 0, 0, 0, 0, 0, 0, 0, 0, 0, 0, 0, 0, 0, 0, 0, 0, 0, 0, 0, 0, 0, 0, 0, 0, 0], [0, 0, 0, 0, 0, 0, 0, 0, 0, 0, 0, 0, 0, 0, 0, 0, 0, 0, 0, 0, 0, 0, 0, 0, 0, 0, 0, 0, 0, 0, 0, 0, 0, 0, 0, 0, 0, 0, 0, 0], [48, 41, 36, 46, 32, 42, 48, 43, 43, 31, 42, 47, 44, 36, 40, 38, 46, 37, 30, 38, 44, 48, 45, 36, 37, 41, 38, 49, 40, 38, 30, 40, 48, 35, 30, 30, 36, 38, 45, 39], [33, 36, 45, 32, 32, 36, 49, 43, 39, 41, 50, 44, 31, 34, 47, 38, 45, 31, 41, 41, 40, 43, 32, 31, 41, 40, 36, 42, 45, 46, 48, 47, 41, 37, 50, 43, 43, 46, 34, 42]], [[0, 0, 0, 0, 0, 0, 0, 0, 0, 0, 0, 0, 0, 0, 0, 0, 0, 0, 0, 0, 0, 0, 0, 0, 0, 0, 0, 0, 0, 0, 0, 0, 0, 0, 0, 0, 0, 0, 0, 0], [0, 0, 0, 0, 0, 0, 0, 0, 0, 0, 0, 0, 0, 0, 0, 0, 0, 0, 0, 0, 0, 0, 0, 0, 0, 0, 0, 0, 0, 0, 0, 0, 0, 0, 0, 0, 0, 0, 0, 0], [0, 0, 0, 0, 0, 0, 0, 0, 0, 0, 0, 0, 0, 0, 0, 0, 0, 0, 0, 0, 0, 0, 0, 0, 0, 0, 0, 0, 0, 0, 0, 0, 0, 0, 0, 0, 0, 0, 0, 0], [0, 0, 0, 0, 0, 0, 0, 0, 0, 0, 0, 0, 0, 0, 0, 0, 0, 0, 0, 0, 0, 0, 0, 0, 0, 0, 0, 0, 0, 0, 0, 0, 0, 0, 0, 0, 0, 0, 0, 0], [0, 0, 0, 0, 0, 0, 0, 0, 0, 0, 0, 0, 0, 0, 0, 0, 0, 0, 0, 0, 0, 0, 0, 0, 0, 0, 0, 0, 0, 0, 0, 0, 0, 0, 0, 0, 0, 0, 0, 0], [0, 0, 0, 0, 0, 0, 0, 0, 0, 0, 0, 0, 0, 0, 0, 0, 0, 0, 0, 0, 0, 0, 0, 0, 0, 0, 0, 0, 0, 0, 0, 0, 0, 0, 0, 0, 0, 0, 0, 0], [0, 0, 0, 0, 0, 0, 0, 0, 0, 0, 0, 0, 0, 0, 0, 0, 0, 0, 0, 0, 0, 0, 0, 0, 0, 0, 0, 0, 0, 0, 0, 0, 0, 0, 0, 0, 0, 0, 0, 0], [0, 0, 0, 0, 0, 0, 0, 0, 0, 0, 0, 0, 0, 0, 0, 0, 0, 0, 0, 0, 0, 0, 0, 0, 0, 0, 0, 0, 0, 0, 0, 0, 0, 0, 0, 0, 0, 0, 0, 0], [0, 0, 0, 0, 0, 0, 0, 0, 0, 0, 0, 0, 0, 0, 0, 0, 0, 0, 0, 0, 0, 0, 0, 0, 0, 0, 0, 0, 0, 0, 0, 0, 0, 0, 0, 0, 0, 0, 0, 0], [34, 49, 43, 35, 35, 40, 35, 45, 42, 33, 41, 35, 46, 34, 48, 37, 39, 40, 33, 46, 32, 37, 33, 36, 50, 35, 47, 48, 33, 32, 30, 46, 31, 47, 40, 44, 38, 35, 37, 40]], [[0, 0, 0, 0, 0, 0, 0, 0, 0, 0, 0, 0, 0, 0, 0, 0, 0, 0, 0, 0, 0, 0, 0, 0, 0, 0, 0, 0, 0, 0, 0, 0, 0, 0, 0, 0, 0, 0, 0, 0], [0, 0, 0, 0, 0, 0, 0, 0, 0, 0, 0, 0, 0, 0, 0, 0, 0, 0, 0, 0, 0, 0, 0, 0, 0, 0, 0, 0, 0, 0, 0, 0, 0, 0, 0, 0, 0, 0, 0, 0], [0, 0, 0, 0, 0, 0, 0, 0, 0, 0, 0, 0, 0, 0, 0, 0, 0, 0, 0, 0, 0, 0, 0, 0, 0, 0, 0, 0, 0, 0, 0, 0, 0, 0, 0, 0, 0, 0, 0, 0], [0, 0, 0, 0, 0, 0, 0, 0, 0, 0, 0, 0, 0, 0, 0, 0, 0, 0, 0, 0, 0, 0, 0, 0, 0, 0, 0, 0, 0, 0, 0, 0, 0, 0, 0, 0, 0, 0, 0, 0], [0, 0, 0, 0, 0, 0, 0, 0, 0, 0, 0, 0, 0, 0, 0, 0, 0, 0, 0, 0, 0, 0, 0, 0, 0, 0, 0, 0, 0, 0, 0, 0, 0, 0, 0, 0, 0, 0, 0, 0], [0, 0, 0, 0, 0, 0, 0, 0, 0, 0, 0, 0, 0, 0, 0, 0, 0, 0, 0, 0, 0, 0, 0, 0, 0, 0, 0, 0, 0, 0, 0, 0, 0, 0, 0, 0, 0, 0, 0, 0], [0, 0, 0, 0, 0, 0, 0, 0, 0, 0, 0, 0, 0, 0, 0, 0, 0, 0, 0, 0, 0, 0, 0, 0, 0, 0, 0, 0, 0, 0, 0, 0, 0, 0, 0, 0, 0, 0, 0, 0], [0, 0, 0, 0, 0, 0, 0, 0, 0, 0, 0, 0, 0, 0, 0, 0, 0, 0, 0, 0, 0, 0, 0, 0, 0, 0, 0, 0, 0, 0, 0, 0, 0, 0, 0, 0, 0, 0, 0, 0], [0, 0, 0, 0, 0, 0, 0, 0, 0, 0, 0, 0, 0, 0, 0, 0, 0, 0, 0, 0, 0, 0, 0, 0, 0, 0, 0, 0, 0, 0, 0, 0, 0, 0, 0, 0, 0, 0, 0, 0], [0, 0, 0, 0, 0, 0, 0, 0, 0, 0, 0, 0, 0, 0, 0, 0, 0, 0, 0, 0, 0, 0, 0, 0, 0, 0, 0, 0, 0, 0, 0, 0, 0, 0, 0, 0, 0, 0, 0, 0]]];

q = [[[19], [8], [16], [19], [11], [25], [20], [5], [23], [11], [20], [8], [18], [5], [12], [13], [12], [6], [11], [8], [8], [23], [17], [9], [18], [5], [6], [23], [9], [24], [24], [19], [23], [13], [10], [5], [11], [24], [10], [22]], [[9], [22], [15], [17], [7], [24], [19], [19], [11], [6], [17], [18], [9], [23], [14], [20], [7], [17], [23], [7], [15], [8], [16], [16], [9], [25], [6], [5], [5], [25], [7], [18], [5], [18], [6], [10], [8], [10], [16], [18]], [[20], [22], [15], [23], [25], [25], [6], [5], [14], [23], [11], [5], [20], [6], [5], [7], [8], [9], [17], [6], [8], [13], [22], [19], [5], [18], [13], [20], [16], [12], [23], [25], [11], [19], [8], [21], [9], [22], [8], [22]], [[6], [7], [15], [8], [11], [16], [17], [14], [7], [8], [20], [14], [23], [13], [11], [25], [5], [25], [18], [5], [8], [20], [9], [9], [25], [23], [6], [15], [20], [24], [7], [19], [7], [6], [7], [12], [5], [10], [17], [12]], [[25], [12], [10], [20], [12], [24], [20], [14], [21], [5], [20], [9], [12], [13], [22], [23], [14], [14], [14], [25], [21], [5], [8], [11], [19], [14], [17], [15], [25], [13], [14], [16], [21], [8], [6], [19], [7], [6], [22], [20]], [[10], [16], [19], [14], [9], [18], [15], [10], [19], [6], [10], [11], [7], [23], [24], [14], [12], [5], [25], [16], [13], [8], [13], [25], [9], [24], [15], [6], [11], [24], [14], [9], [24], [6], [18], [21], [20], [21], [10], [10]], [[6], [8], [20], [24], [9], [24], [24], [10], [21], [20], [12], [11], [8], [24], [5], [8], [10], [25], [5], [6], [9], [8], [20], [16], [14], [7], [25], [11], [10], [24], [17], [23], [13], [16], [9], [8], [5], [15], [21], [23]], [[12], [5], [20], [13], [21], [15], [11], [15], [22], [20], [13], [8], [18], [20], [5], [20], [14], [12], [22], [15], [19], [7], [22], [16], [15], [15], [23], [19], [20], [16], [10], [20], [20], [11], [14], [15], [12], [22], [20], [22]], [[22], [24], [10], [12], [19], [20], [14], [16], [10], [11], [9], [15], [17], [25], [5], [14], [21], [24], [24], [19], [15], [10], [24], [9], [14], [24], [15], [16], [19], [14], [14], [22], [13], [17], [10], [11], [6], [16], [12], [9]], [[7], [8], [12], [24], [12], [14], [7], [11], [19], [15], [20], [21], [7], [5], [11], [11], [6], [16], [25], [14], [23], [13], [9], [11], [15], [9], [25], [14], [25], [24], [25], [10], [19], [14], [25], [18], [21], [21], [9], [21]]];
Q = [[45], [44], [46], [42], [49], [46], [45], [51], [49], [49]];
